SCIP version 5.0.0 [precision: 8 byte] [memory: block] [mode: optimized] [LP solver: NONE] [GitHash: 3bbd232]
Copyright (C) 2002-2017 Konrad-Zuse-Zentrum fuer Informationstechnik Berlin (ZIB)

External codes: 
  Readline EditLine w  GNU library for command line editing (gnu.org/s/readline)
  CppAD 20160000.1     Algorithmic Differentiation of C++ algorithms developed by B. Bell (www.coin-or.org/CppAD)
  ZLIB 1.2.5           General purpose compression library by J. Gailly and M. Adler (zlib.net)
  GMP 6.1.2            GNU Multiple Precision Arithmetic Library developed by T. Granlund (gmplib.org)

user parameter file <scip.set> not found - using default parameters

read problem <../../Split_data/output/biodeg/9/0_sample_biodeg.logreg>
============

File name	:	../../Split_data/output/biodeg/9/0_sample_biodeg.logreg
Problem name 	:	0_sample_biodeg
Number of data	:	844
Number of var	:	41
The given data has linear independence

[dim=1] time: 0.035357
[dim=2] time: 0.071926
[dim=3] time: 0.10356
[dim=4] time: 0.137484
[dim=5] time: 0.168355
[dim=6] time: 0.197694
[dim=7] time: 0.228017
[dim=8] time: 0.255526
[dim=9] time: 0.281984
[dim=10] time: 0.3175
[dim=11] time: 0.336952
[dim=12] time: 0.355434
[dim=13] time: 0.374388
[dim=14] time: 0.3935
[dim=15] time: 0.4126
[dim=16] time: 0.431573
[dim=17] time: 0.451698
[dim=18] time: 0.47215
[dim=19] time: 0.491659
[dim=20] time: 0.510275
[dim=21] time: 0.529324
[dim=22] time: 0.547912
[dim=23] time: 0.56534
[dim=24] time: 0.581478
[dim=25] time: 0.596658
[dim=26] Time of forward = 0.611515sec.
AIC: 538.11
k: 25

[dim=41] time: 0.137984
[dim=40] time: 0.191232
[dim=39] time: 0.253757
[dim=38] time: 0.315419
[dim=37] time: 0.353828
[dim=36] time: 0.403691
[dim=35] time: 0.453948
[dim=34] time: 0.500336
[dim=33] time: 0.542135
[dim=32] time: 0.578652
[dim=31] time: 0.613634
[dim=30] time: 0.649185
[dim=29] time: 0.684249
[dim=28] time: 0.714432
[dim=27] time: 0.752617
[dim=26] time: 0.778576
[dim=25] time: 0.810553
[dim=24] Time of backward = 0.838029sec.
AIC: 537.233
k: 25
